results/gr_files/K4.gr
p tw 33 53
7 23
3 4
13 33
26 27
6 24
12 13
21 22
22 23
31 32
3 19
8 9
4 18
5 25
17 18
27 28
25 26
13 14
9 29
1 21
2 20
32 33
18 19
1 33
4 5
5 6
14 15
23 24
9 10
1 2
10 11
19 20
28 29
17 29
6 7
15 16
24 25
13 25
16 30
15 31
20 21
29 30
12 26
5 17
14 32
2 3
11 12
9 21
8 22
7 8
30 31
10 28
11 27
16 17
